p edge 75 555
e 1 9
e 1 11
e 1 14
e 1 16
e 1 20
e 1 22
e 1 26
e 1 29
e 1 30
e 1 36
e 1 49
e 1 54
e 1 56
e 1 70
e 1 72
e 1 75
e 2 6
e 2 11
e 2 36
e 2 38
e 2 44
e 2 45
e 2 54
e 2 56
e 3 11
e 3 12
e 3 18
e 3 23
e 3 29
e 3 33
e 3 42
e 3 45
e 3 48
e 3 51
e 3 52
e 3 54
e 3 55
e 3 56
e 3 58
e 3 65
e 3 68
e 3 69
e 3 70
e 4 6
e 4 8
e 4 14
e 4 36
e 4 37
e 4 39
e 4 40
e 4 51
e 4 54
e 4 67
e 4 70
e 4 71
e 5 11
e 5 14
e 5 23
e 5 24
e 5 26
e 5 31
e 5 36
e 5 40
e 5 41
e 5 43
e 5 45
e 5 49
e 5 61
e 5 64
e 5 70
e 5 73
e 6 8
e 6 15
e 6 17
e 6 40
e 6 47
e 6 49
e 6 53
e 6 54
e 6 61
e 6 62
e 6 69
e 7 13
e 7 30
e 7 36
e 7 47
e 7 50
e 7 54
e 7 55
e 7 58
e 7 61
e 7 63
e 7 72
e 7 74
e 8 13
e 8 30
e 8 31
e 8 40
e 8 44
e 8 50
e 8 59
e 8 65
e 8 69
e 8 71
e 8 72
e 9 14
e 9 20
e 9 23
e 9 30
e 9 35
e 9 43
e 9 60
e 9 61
e 9 66
e 9 68
e 9 75
e 10 11
e 10 24
e 10 30
e 10 35
e 10 37
e 10 38
e 10 44
e 10 62
e 10 68
e 10 74
e 11 31
e 11 41
e 11 50
e 11 53
e 11 55
e 11 57
e 11 59
e 11 71
e 11 72
e 11 75
e 12 25
e 12 27
e 12 33
e 12 34
e 12 35
e 12 42
e 12 51
e 12 56
e 12 62
e 12 64
e 12 65
e 13 16
e 13 18
e 13 23
e 13 27
e 13 29
e 13 32
e 13 38
e 13 46
e 13 49
e 13 51
e 13 64
e 13 65
e 13 71
e 14 15
e 14 23
e 14 24
e 14 29
e 14 31
e 14 34
e 14 47
e 14 49
e 14 50
e 14 57
e 14 60
e 14 61
e 14 72
e 15 20
e 15 40
e 15 41
e 15 45
e 15 47
e 15 61
e 15 65
e 15 66
e 15 67
e 15 69
e 15 72
e 15 74
e 16 19
e 16 26
e 16 28
e 16 29
e 16 32
e 16 41
e 16 48
e 16 56
e 16 60
e 16 61
e 16 63
e 16 64
e 17 18
e 17 20
e 17 22
e 17 24
e 17 26
e 17 31
e 17 35
e 17 37
e 17 45
e 17 46
e 17 52
e 17 57
e 17 64
e 17 67
e 17 71
e 17 74
e 18 20
e 18 29
e 18 30
e 18 32
e 18 38
e 18 42
e 18 49
e 18 63
e 18 65
e 18 68
e 18 71
e 19 22
e 19 23
e 19 24
e 19 43
e 19 46
e 19 48
e 19 50
e 19 61
e 19 63
e 19 70
e 19 73
e 19 74
e 20 26
e 20 29
e 20 31
e 20 35
e 20 36
e 20 38
e 20 46
e 20 48
e 20 54
e 20 55
e 20 56
e 20 58
e 20 59
e 20 61
e 20 64
e 20 65
e 21 29
e 21 31
e 21 38
e 21 39
e 21 50
e 21 51
e 21 52
e 21 62
e 21 66
e 22 24
e 22 37
e 22 38
e 22 45
e 22 47
e 22 55
e 22 56
e 22 59
e 22 71
e 22 72
e 23 34
e 23 35
e 23 40
e 23 41
e 23 45
e 23 54
e 24 25
e 24 29
e 24 35
e 24 39
e 24 44
e 24 45
e 24 54
e 24 55
e 24 60
e 24 66
e 24 67
e 25 26
e 25 33
e 25 37
e 25 46
e 25 63
e 26 28
e 26 29
e 26 33
e 26 39
e 26 40
e 26 41
e 26 54
e 26 55
e 26 66
e 26 70
e 26 73
e 27 28
e 27 29
e 27 35
e 27 37
e 27 38
e 27 44
e 27 53
e 27 70
e 27 73
e 28 39
e 28 40
e 28 45
e 28 46
e 28 47
e 28 50
e 28 61
e 28 68
e 28 70
e 29 38
e 29 39
e 29 42
e 29 49
e 29 50
e 29 59
e 29 61
e 29 63
e 29 65
e 29 71
e 29 75
e 30 35
e 30 51
e 30 65
e 30 66
e 30 71
e 30 73
e 31 32
e 31 40
e 31 57
e 31 60
e 31 63
e 31 66
e 31 68
e 31 71
e 32 35
e 32 37
e 32 39
e 32 42
e 32 45
e 32 48
e 32 51
e 32 55
e 32 57
e 32 64
e 32 71
e 33 41
e 33 47
e 33 58
e 33 61
e 33 73
e 34 37
e 34 41
e 34 42
e 34 43
e 34 44
e 34 50
e 34 52
e 34 53
e 34 59
e 34 60
e 34 61
e 34 68
e 34 75
e 35 36
e 35 38
e 35 42
e 35 45
e 35 56
e 35 62
e 35 70
e 36 38
e 36 42
e 36 43
e 36 47
e 36 48
e 36 56
e 36 57
e 36 63
e 36 71
e 36 74
e 36 75
e 37 45
e 37 64
e 37 65
e 37 72
e 38 42
e 38 43
e 38 44
e 38 47
e 38 55
e 38 57
e 38 61
e 39 40
e 39 41
e 39 51
e 39 67
e 39 69
e 39 70
e 39 72
e 40 43
e 40 57
e 40 63
e 40 65
e 40 67
e 40 72
e 40 73
e 40 74
e 41 45
e 41 46
e 41 51
e 41 54
e 41 55
e 41 58
e 41 63
e 41 67
e 41 74
e 42 53
e 42 54
e 42 61
e 42 62
e 42 63
e 42 65
e 42 66
e 42 68
e 42 72
e 42 73
e 43 44
e 43 49
e 43 57
e 43 59
e 43 62
e 43 68
e 43 69
e 43 71
e 44 46
e 44 47
e 44 52
e 44 68
e 44 70
e 44 71
e 44 73
e 45 47
e 45 48
e 45 55
e 45 56
e 45 58
e 45 66
e 45 68
e 45 72
e 46 50
e 46 51
e 46 52
e 46 53
e 46 56
e 46 57
e 46 60
e 47 53
e 47 56
e 48 49
e 48 50
e 48 52
e 48 55
e 48 56
e 48 58
e 48 60
e 48 64
e 48 66
e 48 71
e 48 72
e 49 54
e 49 62
e 49 67
e 49 69
e 49 72
e 50 53
e 50 55
e 50 59
e 50 63
e 50 65
e 51 56
e 51 60
e 51 67
e 52 55
e 52 68
e 53 54
e 53 56
e 53 64
e 53 67
e 53 69
e 54 60
e 54 62
e 54 68
e 54 72
e 55 57
e 55 58
e 55 63
e 55 64
e 55 66
e 55 67
e 55 70
e 55 73
e 55 75
e 56 60
e 56 61
e 56 72
e 57 62
e 57 65
e 57 68
e 58 60
e 58 63
e 59 70
e 60 64
e 60 65
e 60 68
e 60 70
e 60 72
e 60 75
e 61 66
e 61 74
e 62 64
e 62 68
e 62 69
e 63 65
e 63 66
e 63 67
e 63 68
e 63 69
e 63 74
e 65 75
e 66 68
e 66 69
e 66 71
e 67 73
e 67 74
e 68 70
e 69 72
e 69 73
e 70 71
e 70 75
e 71 73
e 71 75
e 72 75
